nodes = 181;
edges = 380;
starts = [1, 1, 1, 2, 2, 2, 3, 3, 3, 4, 4, 5, 5, 5, 6, 6, 6, 7, 7, 8, 8, 8, 9, 9, 9, 9, 10, 11, 12, 12, 13, 13, 13, 13, 14, 14, 14, 15, 15, 16, 16, 16, 17, 18, 18, 19, 19, 19, 20, 20, 21, 21, 21, 22, 23, 23, 24, 24, 24, 24, 25, 25, 25, 26, 26, 26, 27, 28, 29, 29, 29, 30, 30, 30, 31, 31, 32, 32, 32, 33, 33, 33, 34, 34, 34, 34, 35, 36, 36, 36, 37, 38, 38, 38, 39, 39, 39, 40, 40, 40, 41, 42, 42, 43, 44, 44, 45, 45, 45, 46, 47, 48, 48, 49, 49, 49, 50, 50, 51, 51, 52, 52, 53, 54, 54, 55, 56, 56, 56, 57, 58, 58, 58, 59, 59, 59, 59, 60, 61, 61, 61, 62, 62, 62, 63, 63, 64, 64, 65, 66, 67, 68, 69, 69, 69, 70, 71, 71, 71, 72, 72, 73, 73, 74, 74, 75, 75, 75, 76, 76, 76, 77, 77, 77, 78, 79, 79, 80, 80, 81, 81, 82, 82, 82, 83, 83, 83, 84, 85, 85, 85, 85, 86, 86, 86, 87, 87, 87, 88, 88, 89, 89, 90, 91, 91, 92, 92, 93, 94, 94, 94, 95, 95, 96, 96, 96, 97, 97, 98, 98, 98, 98, 99, 99, 99, 100, 101, 101, 102, 102, 103, 104, 104, 104, 105, 106, 106, 106, 106, 107, 108, 108, 109, 110, 110, 110, 111, 111, 112, 112, 112, 113, 114, 115, 115, 116, 116, 117, 117, 117, 118, 118, 119, 119, 120, 120, 120, 121, 121, 122, 122, 123, 123, 123, 124, 124, 125, 125, 125, 126, 127, 127, 128, 128, 129, 129, 130, 130, 130, 131, 131, 132, 132, 133, 134, 135, 135, 136, 137, 138, 138, 139, 140, 141, 142, 143, 143, 144, 144, 145, 145, 145, 146, 146, 147, 147, 147, 148, 149, 149, 150, 151, 152, 153, 153, 154, 155, 156, 156, 157, 157, 158, 158, 158, 159, 159, 160, 160, 160, 160, 161, 162, 162, 163, 163, 164, 164, 164, 165, 165, 165, 166, 167, 168, 169, 170, 171, 172, 172, 173, 174, 174, 174, 175, 175, 176, 176, 177, 177, 177, 177, 178, 179, 179, 179, 180, 180, 181, 181, 181];
ends = [36, 50, 165, 37, 123, 140, 5, 63, 83, 92, 124, 3, 7, 32, 29, 55, 164, 5, 176, 12, 42, 97, 13, 24, 69, 120, 14, 34, 8, 175, 9, 36, 71, 98, 10, 75, 106, 31, 156, 114, 154, 177, 34, 20, 143, 57, 63, 107, 18, 159, 85, 130, 151, 73, 32, 46, 9, 25, 73, 171, 24, 152, 180, 83, 98, 176, 102, 63, 6, 106, 147, 110, 117, 170, 15, 158, 7, 33, 48, 32, 46, 61, 11, 17, 56, 174, 134, 1, 13, 89, 2, 39, 72, 85, 38, 40, 49, 43, 112, 130, 49, 8, 158, 132, 52, 111, 53, 84, 120, 52, 61, 28, 80, 39, 41, 179, 50, 1, 88, 126, 81, 108, 45, 95, 146, 6, 34, 76, 90, 19, 59, 79, 82, 58, 76, 79, 86, 62, 33, 47, 77, 60, 127, 169, 3, 19, 44, 70, 77, 117, 64, 69, 9, 68, 71, 67, 13, 69, 181, 44, 70, 22, 24, 153, 157, 14, 76, 104, 56, 59, 75, 33, 61, 65, 153, 58, 59, 28, 65, 39, 72, 58, 100, 147, 3, 26, 167, 45, 21, 38, 110, 117, 59, 161, 181, 133, 160, 178, 51, 165, 89, 36, 56, 94, 143, 136, 149, 110, 91, 105, 138, 54, 112, 99, 102, 162, 8, 101, 13, 26, 145, 174, 96, 123, 144, 82, 97, 177, 27, 99, 181, 75, 164, 174, 94, 14, 29, 164, 166, 19, 35, 115, 81, 30, 85, 93, 23, 145, 40, 95, 139, 123, 16, 116, 137, 119, 137, 30, 66, 85, 92, 124, 122, 142, 9, 45, 180, 109, 116, 121, 168, 2, 99, 113, 127, 129, 135, 172, 179, 51, 62, 129, 109, 122, 4, 131, 21, 38, 40, 4, 144, 43, 130, 87, 149, 125, 146, 128, 91, 119, 142, 112, 2, 165, 35, 18, 94, 96, 131, 23, 98, 111, 54, 135, 29, 82, 148, 147, 16, 154, 160, 21, 25, 74, 78, 163, 156, 15, 155, 74, 159, 31, 42, 160, 20, 157, 87, 150, 158, 177, 86, 96, 173, 92, 118, 6, 104, 106, 1, 88, 141, 106, 83, 121, 62, 30, 24, 125, 179, 162, 34, 98, 104, 12, 177, 5, 26, 16, 101, 160, 175, 87, 49, 125, 172, 25, 120, 71, 86, 103];
weights = [1, 1, 1, 1, 1, 1, 1, 1, 1, 1, 1, 1, 1, 1, 1, 1, 1, 1, 1, 1, 1, 1, 1, 1, 1, 1, 1, 1, 1, 1, 1, 1, 1, 1, 1, 1, 1, 1, 1, 1, 1, 1, 1, 1, 1, 1, 1, 1, 1, 1, 1, 1, 1, 1, 1, 1, 1, 1, 1, 1, 1, 1, 1, 1, 1, 1, 1, 1, 1, 1, 1, 1, 1, 1, 1, 1, 1, 1, 1, 1, 1, 1, 1, 1, 1, 1, 1, 1, 1, 1, 1, 1, 1, 1, 1, 1, 1, 1, 1, 1, 1, 1, 1, 1, 1, 1, 1, 1, 1, 1, 1, 1, 1, 1, 1, 1, 1, 1, 1, 1, 1, 1, 1, 1, 1, 1, 1, 1, 1, 1, 1, 1, 1, 1, 1, 1, 1, 1, 1, 1, 1, 1, 1, 1, 1, 1, 1, 1, 1, 1, 1, 1, 1, 1, 1, 1, 1, 1, 1, 1, 1, 1, 1, 1, 1, 1, 1, 1, 1, 1, 1, 1, 1, 1, 1, 1, 1, 1, 1, 1, 1, 1, 1, 1, 1, 1, 1, 1, 1, 1, 1, 1, 1, 1, 1, 1, 1, 1, 1, 1, 1, 1, 1, 1, 1, 1, 1, 1, 1, 1, 1, 1, 1, 1, 1, 1, 1, 1, 1, 1, 1, 1, 1, 1, 1, 1, 1, 1, 1, 1, 1, 1, 1, 1, 1, 1, 1, 1, 1, 1, 1, 1, 1, 1, 1, 1, 1, 1, 1, 1, 1, 1, 1, 1, 1, 1, 1, 1, 1, 1, 1, 1, 1, 1, 1, 1, 1, 1, 1, 1, 1, 1, 1, 1, 1, 1, 1, 1, 1, 1, 1, 1, 1, 1, 1, 1, 1, 1, 1, 1, 1, 1, 1, 1, 1, 1, 1, 1, 1, 1, 1, 1, 1, 1, 1, 1, 1, 1, 1, 1, 1, 1, 1, 1, 1, 1, 1, 1, 1, 1, 1, 1, 1, 1, 1, 1, 1, 1, 1, 1, 1, 1, 1, 1, 1, 1, 1, 1, 1, 1, 1, 1, 1, 1, 1, 1, 1, 1, 1, 1, 1, 1, 1, 1, 1, 1, 1, 1, 1, 1, 1, 1, 1, 1, 1, 1, 1, 1, 1, 1, 1, 1, 1, 1, 1, 1, 1, 1, 1, 1];
start = 133;
end= 76;
p = [0, 0, 0, 0, 15, 0, 0, 0, 24, 0, 0, 0, 0, 0, 0, 0, 0, 0, 0, 0, 0, 0, 0, 0, 0, 0, 0, 0, 0, 0, 0, 0, 0, 0, 0, 0, 0, 0, 0, 0, 0, 0, 2, 0, 0, 0, 0, 0, 0, 0, 0, 0, 0, 0, 0, 0, 0, 0, 0, 0, 0, 0, 0, 0, 0, 0, 0, 0, 0, 0, 0, 0, 0, 0, 0, 0, 0, 0, 0, 0, 0, 0, 0, 0, 0, 0, 0, 0, 0, 0, 0, 0, 0, 0, 0, 0, 0, 0, 0, 0, 0, 0, 0, 0, 0, 0, 0, 0, 0, 0, 0, 0, 0, 0, 0, 0, 0, 0, 0, 0, 0, 0, 0, 0, 0, 0, 0, 0, 0, 0, 0, 0, 0, 0, 0, 0, 0, 2, 0, 0, 0, 0, 0, 0, 0, 0, 0, 0, 9, 0, 0, 0, 0, 0, 0, 0, 0, 0, 0, 0, 0, 0, 0, 0, 0, 0, 0, 0, 0, 0, 0, 0, 0, 0, 0, 0, 0, 0, 1, 0, 0];
